3	8	12	13	5	7	19	11	10	11	11	16	16	12	14	14	6	15	18	8
13	16	7	17	8	3	7	11	9	17	12	16	8	7	14	4	8	15	1	3
10	5	12	1	2	10	1	2	2	8	18	2	11	8	18	17	19	16	5	17
8	9	16	10	19	18	5	10	6	5	4	8	18	7	13	8	15	20	8	11
